% From JaCoP's nonogramRepository/data127.nin
 rows = 25;
 row_rule_len = 7;
 row_rules = array2d(1..rows, 1..row_rule_len, 
[
 0,0,0,0,0,0,6,
 0,0,0,0,0,0,6,
 0,0,0,0,0,0,4,
 0,0,0,0,0,0,1,
 0,0,0,0,0,0,10,
 0,0,0,0,0,4,10,
 0,0,0,4,1,1,1,
 0,0,0,4,1,1,1,
 0,0,0,2,1,1,1,
 0,0,0,2,1,1,1,
 0,0,0,0,0,12,4,
 0,0,0,1,9,1,4,
 0,0,0,0,2,9,8,
 0,0,0,0,2,9,8,
 0,0,0,2,1,1,8,
 0,0,0,1,1,1,8,
 0,0,0,0,0,0,19,
 0,0,0,0,1,1,2,
 0,0,0,0,14,3,3,
 0,0,3,3,2,5,2,
 0,0,3,3,1,3,8,
 0,0,0,3,5,5,7,
 3,2,2,2,2,3,3,
 0,0,0,0,5,5,5,
 0,0,0,0,3,3,3
]);

 cols = 25;
 col_rule_len = 6;
 col_rules = array2d(1..cols, 1..col_rule_len, 
[
 0,0,0,0,0,2,
 0,0,0,0,0,3,
 0,0,0,0,3,4,
 0,0,0,0,5,3,
 0,0,0,1,4,3,
 0,0,0,7,1,5,
 3,4,1,1,2,2,
 0,0,9,1,1,5,
 0,2,9,1,2,3,
 0,2,3,4,1,3,
 0,3,4,1,2,3,
 0,3,4,1,1,5,
 2,4,1,1,2,2,
 0,0,2,7,1,5,
 2,2,1,1,2,3,
 0,0,0,1,13,3,
 0,0,2,5,1,3,
 0,0,0,2,6,5,
 0,0,0,2,5,7,
 0,0,0,13,4,2,
 0,0,0,2,7,7,
 0,0,0,2,8,5,
 0,0,0,0,15,3,
 0,0,0,0,2,2,
 0,0,0,0,0,2
]);

